Route 1: 0 74 29 79 16 60 67 49 24 23 95 47 0
Route 2: 0 56 98 18 20 10 97 96 42 54 68 0
Route 3: 0 27 11 7 83 90 78 92 100 99 3 17 81 0
Route 4: 0 40 32 80 31 77 30 43 94 0
Route 5: 0 14 88 9 66 65 39 71 33 91 0
Route 6: 0 1 76 12 63 64 72 89 73 6 0
Route 7: 0 36 52 38 15 37 50 26 5 86 34 85 70 0
Route 8: 0 44 48 61 51 4 58 0
Route 9: 0 55 8 21 45 82 22 2 75 35 41 28 0
Route 10: 0 93 19 69 84 13 57 59 53 25 0
Route 11: 0 87 62 46 0
